\* AdWord_Problem *\
Maximize
Sum_of_Total_Revenue: Route_B0_0 + Route_B0_1 + 0.5 Route_B1_0
Subject To
Sum_of_Bids_into_Query0: Route_B0_0 + Route_B1_0 <= 1
Sum_of_Bids_into_Query1: Route_B0_1 + Route_B1_1 <= 1
Sum_of_Bids_into_Query10: Route_B0_10 + Route_B1_10 <= 1
Sum_of_Bids_into_Query100: Route_B0_100 + Route_B1_100 <= 1
Sum_of_Bids_into_Query101: Route_B0_101 + Route_B1_101 <= 1
Sum_of_Bids_into_Query102: Route_B0_102 + Route_B1_102 <= 1
Sum_of_Bids_into_Query103: Route_B0_103 + Route_B1_103 <= 1
Sum_of_Bids_into_Query104: Route_B0_104 + Route_B1_104 <= 1
Sum_of_Bids_into_Query105: Route_B0_105 + Route_B1_105 <= 1
Sum_of_Bids_into_Query106: Route_B0_106 + Route_B1_106 <= 1
Sum_of_Bids_into_Query107: Route_B0_107 + Route_B1_107 <= 1
Sum_of_Bids_into_Query108: Route_B0_108 + Route_B1_108 <= 1
Sum_of_Bids_into_Query109: Route_B0_109 + Route_B1_109 <= 1
Sum_of_Bids_into_Query11: Route_B0_11 + Route_B1_11 <= 1
Sum_of_Bids_into_Query110: Route_B0_110 + Route_B1_110 <= 1
Sum_of_Bids_into_Query111: Route_B0_111 + Route_B1_111 <= 1
Sum_of_Bids_into_Query112: Route_B0_112 + Route_B1_112 <= 1
Sum_of_Bids_into_Query113: Route_B0_113 + Route_B1_113 <= 1
Sum_of_Bids_into_Query114: Route_B0_114 + Route_B1_114 <= 1
Sum_of_Bids_into_Query115: Route_B0_115 + Route_B1_115 <= 1
Sum_of_Bids_into_Query116: Route_B0_116 + Route_B1_116 <= 1
Sum_of_Bids_into_Query117: Route_B0_117 + Route_B1_117 <= 1
Sum_of_Bids_into_Query118: Route_B0_118 + Route_B1_118 <= 1
Sum_of_Bids_into_Query119: Route_B0_119 + Route_B1_119 <= 1
Sum_of_Bids_into_Query12: Route_B0_12 + Route_B1_12 <= 1
Sum_of_Bids_into_Query120: Route_B0_120 + Route_B1_120 <= 1
Sum_of_Bids_into_Query121: Route_B0_121 + Route_B1_121 <= 1
Sum_of_Bids_into_Query122: Route_B0_122 + Route_B1_122 <= 1
Sum_of_Bids_into_Query123: Route_B0_123 + Route_B1_123 <= 1
Sum_of_Bids_into_Query124: Route_B0_124 + Route_B1_124 <= 1
Sum_of_Bids_into_Query125: Route_B0_125 + Route_B1_125 <= 1
Sum_of_Bids_into_Query126: Route_B0_126 + Route_B1_126 <= 1
Sum_of_Bids_into_Query127: Route_B0_127 + Route_B1_127 <= 1
Sum_of_Bids_into_Query128: Route_B0_128 + Route_B1_128 <= 1
Sum_of_Bids_into_Query129: Route_B0_129 + Route_B1_129 <= 1
Sum_of_Bids_into_Query13: Route_B0_13 + Route_B1_13 <= 1
Sum_of_Bids_into_Query130: Route_B0_130 + Route_B1_130 <= 1
Sum_of_Bids_into_Query131: Route_B0_131 + Route_B1_131 <= 1
Sum_of_Bids_into_Query132: Route_B0_132 + Route_B1_132 <= 1
Sum_of_Bids_into_Query133: Route_B0_133 + Route_B1_133 <= 1
Sum_of_Bids_into_Query134: Route_B0_134 + Route_B1_134 <= 1
Sum_of_Bids_into_Query135: Route_B0_135 + Route_B1_135 <= 1
Sum_of_Bids_into_Query136: Route_B0_136 + Route_B1_136 <= 1
Sum_of_Bids_into_Query137: Route_B0_137 + Route_B1_137 <= 1
Sum_of_Bids_into_Query138: Route_B0_138 + Route_B1_138 <= 1
Sum_of_Bids_into_Query139: Route_B0_139 + Route_B1_139 <= 1
Sum_of_Bids_into_Query14: Route_B0_14 + Route_B1_14 <= 1
Sum_of_Bids_into_Query140: Route_B0_140 + Route_B1_140 <= 1
Sum_of_Bids_into_Query141: Route_B0_141 + Route_B1_141 <= 1
Sum_of_Bids_into_Query142: Route_B0_142 + Route_B1_142 <= 1
Sum_of_Bids_into_Query143: Route_B0_143 + Route_B1_143 <= 1
Sum_of_Bids_into_Query144: Route_B0_144 + Route_B1_144 <= 1
Sum_of_Bids_into_Query145: Route_B0_145 + Route_B1_145 <= 1
Sum_of_Bids_into_Query146: Route_B0_146 + Route_B1_146 <= 1
Sum_of_Bids_into_Query147: Route_B0_147 + Route_B1_147 <= 1
Sum_of_Bids_into_Query148: Route_B0_148 + Route_B1_148 <= 1
Sum_of_Bids_into_Query149: Route_B0_149 + Route_B1_149 <= 1
Sum_of_Bids_into_Query15: Route_B0_15 + Route_B1_15 <= 1
Sum_of_Bids_into_Query150: Route_B0_150 + Route_B1_150 <= 1
Sum_of_Bids_into_Query151: Route_B0_151 + Route_B1_151 <= 1
Sum_of_Bids_into_Query152: Route_B0_152 + Route_B1_152 <= 1
Sum_of_Bids_into_Query153: Route_B0_153 + Route_B1_153 <= 1
Sum_of_Bids_into_Query154: Route_B0_154 + Route_B1_154 <= 1
Sum_of_Bids_into_Query155: Route_B0_155 + Route_B1_155 <= 1
Sum_of_Bids_into_Query156: Route_B0_156 + Route_B1_156 <= 1
Sum_of_Bids_into_Query157: Route_B0_157 + Route_B1_157 <= 1
Sum_of_Bids_into_Query158: Route_B0_158 + Route_B1_158 <= 1
Sum_of_Bids_into_Query159: Route_B0_159 + Route_B1_159 <= 1
Sum_of_Bids_into_Query16: Route_B0_16 + Route_B1_16 <= 1
Sum_of_Bids_into_Query160: Route_B0_160 + Route_B1_160 <= 1
Sum_of_Bids_into_Query161: Route_B0_161 + Route_B1_161 <= 1
Sum_of_Bids_into_Query162: Route_B0_162 + Route_B1_162 <= 1
Sum_of_Bids_into_Query163: Route_B0_163 + Route_B1_163 <= 1
Sum_of_Bids_into_Query164: Route_B0_164 + Route_B1_164 <= 1
Sum_of_Bids_into_Query165: Route_B0_165 + Route_B1_165 <= 1
Sum_of_Bids_into_Query166: Route_B0_166 + Route_B1_166 <= 1
Sum_of_Bids_into_Query167: Route_B0_167 + Route_B1_167 <= 1
Sum_of_Bids_into_Query168: Route_B0_168 + Route_B1_168 <= 1
Sum_of_Bids_into_Query169: Route_B0_169 + Route_B1_169 <= 1
Sum_of_Bids_into_Query17: Route_B0_17 + Route_B1_17 <= 1
Sum_of_Bids_into_Query170: Route_B0_170 + Route_B1_170 <= 1
Sum_of_Bids_into_Query171: Route_B0_171 + Route_B1_171 <= 1
Sum_of_Bids_into_Query172: Route_B0_172 + Route_B1_172 <= 1
Sum_of_Bids_into_Query173: Route_B0_173 + Route_B1_173 <= 1
Sum_of_Bids_into_Query174: Route_B0_174 + Route_B1_174 <= 1
Sum_of_Bids_into_Query175: Route_B0_175 + Route_B1_175 <= 1
Sum_of_Bids_into_Query176: Route_B0_176 + Route_B1_176 <= 1
Sum_of_Bids_into_Query177: Route_B0_177 + Route_B1_177 <= 1
Sum_of_Bids_into_Query178: Route_B0_178 + Route_B1_178 <= 1
Sum_of_Bids_into_Query179: Route_B0_179 + Route_B1_179 <= 1
Sum_of_Bids_into_Query18: Route_B0_18 + Route_B1_18 <= 1
Sum_of_Bids_into_Query180: Route_B0_180 + Route_B1_180 <= 1
Sum_of_Bids_into_Query181: Route_B0_181 + Route_B1_181 <= 1
Sum_of_Bids_into_Query182: Route_B0_182 + Route_B1_182 <= 1
Sum_of_Bids_into_Query183: Route_B0_183 + Route_B1_183 <= 1
Sum_of_Bids_into_Query184: Route_B0_184 + Route_B1_184 <= 1
Sum_of_Bids_into_Query185: Route_B0_185 + Route_B1_185 <= 1
Sum_of_Bids_into_Query186: Route_B0_186 + Route_B1_186 <= 1
Sum_of_Bids_into_Query187: Route_B0_187 + Route_B1_187 <= 1
Sum_of_Bids_into_Query188: Route_B0_188 + Route_B1_188 <= 1
Sum_of_Bids_into_Query189: Route_B0_189 + Route_B1_189 <= 1
Sum_of_Bids_into_Query19: Route_B0_19 + Route_B1_19 <= 1
Sum_of_Bids_into_Query190: Route_B0_190 + Route_B1_190 <= 1
Sum_of_Bids_into_Query191: Route_B0_191 + Route_B1_191 <= 1
Sum_of_Bids_into_Query192: Route_B0_192 + Route_B1_192 <= 1
Sum_of_Bids_into_Query193: Route_B0_193 + Route_B1_193 <= 1
Sum_of_Bids_into_Query194: Route_B0_194 + Route_B1_194 <= 1
Sum_of_Bids_into_Query195: Route_B0_195 + Route_B1_195 <= 1
Sum_of_Bids_into_Query196: Route_B0_196 + Route_B1_196 <= 1
Sum_of_Bids_into_Query197: Route_B0_197 + Route_B1_197 <= 1
Sum_of_Bids_into_Query198: Route_B0_198 + Route_B1_198 <= 1
Sum_of_Bids_into_Query199: Route_B0_199 + Route_B1_199 <= 1
Sum_of_Bids_into_Query2: Route_B0_2 + Route_B1_2 <= 1
Sum_of_Bids_into_Query20: Route_B0_20 + Route_B1_20 <= 1
Sum_of_Bids_into_Query21: Route_B0_21 + Route_B1_21 <= 1
Sum_of_Bids_into_Query22: Route_B0_22 + Route_B1_22 <= 1
Sum_of_Bids_into_Query23: Route_B0_23 + Route_B1_23 <= 1
Sum_of_Bids_into_Query24: Route_B0_24 + Route_B1_24 <= 1
Sum_of_Bids_into_Query25: Route_B0_25 + Route_B1_25 <= 1
Sum_of_Bids_into_Query26: Route_B0_26 + Route_B1_26 <= 1
Sum_of_Bids_into_Query27: Route_B0_27 + Route_B1_27 <= 1
Sum_of_Bids_into_Query28: Route_B0_28 + Route_B1_28 <= 1
Sum_of_Bids_into_Query29: Route_B0_29 + Route_B1_29 <= 1
Sum_of_Bids_into_Query3: Route_B0_3 + Route_B1_3 <= 1
Sum_of_Bids_into_Query30: Route_B0_30 + Route_B1_30 <= 1
Sum_of_Bids_into_Query31: Route_B0_31 + Route_B1_31 <= 1
Sum_of_Bids_into_Query32: Route_B0_32 + Route_B1_32 <= 1
Sum_of_Bids_into_Query33: Route_B0_33 + Route_B1_33 <= 1
Sum_of_Bids_into_Query34: Route_B0_34 + Route_B1_34 <= 1
Sum_of_Bids_into_Query35: Route_B0_35 + Route_B1_35 <= 1
Sum_of_Bids_into_Query36: Route_B0_36 + Route_B1_36 <= 1
Sum_of_Bids_into_Query37: Route_B0_37 + Route_B1_37 <= 1
Sum_of_Bids_into_Query38: Route_B0_38 + Route_B1_38 <= 1
Sum_of_Bids_into_Query39: Route_B0_39 + Route_B1_39 <= 1
Sum_of_Bids_into_Query4: Route_B0_4 + Route_B1_4 <= 1
Sum_of_Bids_into_Query40: Route_B0_40 + Route_B1_40 <= 1
Sum_of_Bids_into_Query41: Route_B0_41 + Route_B1_41 <= 1
Sum_of_Bids_into_Query42: Route_B0_42 + Route_B1_42 <= 1
Sum_of_Bids_into_Query43: Route_B0_43 + Route_B1_43 <= 1
Sum_of_Bids_into_Query44: Route_B0_44 + Route_B1_44 <= 1
Sum_of_Bids_into_Query45: Route_B0_45 + Route_B1_45 <= 1
Sum_of_Bids_into_Query46: Route_B0_46 + Route_B1_46 <= 1
Sum_of_Bids_into_Query47: Route_B0_47 + Route_B1_47 <= 1
Sum_of_Bids_into_Query48: Route_B0_48 + Route_B1_48 <= 1
Sum_of_Bids_into_Query49: Route_B0_49 + Route_B1_49 <= 1
Sum_of_Bids_into_Query5: Route_B0_5 + Route_B1_5 <= 1
Sum_of_Bids_into_Query50: Route_B0_50 + Route_B1_50 <= 1
Sum_of_Bids_into_Query51: Route_B0_51 + Route_B1_51 <= 1
Sum_of_Bids_into_Query52: Route_B0_52 + Route_B1_52 <= 1
Sum_of_Bids_into_Query53: Route_B0_53 + Route_B1_53 <= 1
Sum_of_Bids_into_Query54: Route_B0_54 + Route_B1_54 <= 1
Sum_of_Bids_into_Query55: Route_B0_55 + Route_B1_55 <= 1
Sum_of_Bids_into_Query56: Route_B0_56 + Route_B1_56 <= 1
Sum_of_Bids_into_Query57: Route_B0_57 + Route_B1_57 <= 1
Sum_of_Bids_into_Query58: Route_B0_58 + Route_B1_58 <= 1
Sum_of_Bids_into_Query59: Route_B0_59 + Route_B1_59 <= 1
Sum_of_Bids_into_Query6: Route_B0_6 + Route_B1_6 <= 1
Sum_of_Bids_into_Query60: Route_B0_60 + Route_B1_60 <= 1
Sum_of_Bids_into_Query61: Route_B0_61 + Route_B1_61 <= 1
Sum_of_Bids_into_Query62: Route_B0_62 + Route_B1_62 <= 1
Sum_of_Bids_into_Query63: Route_B0_63 + Route_B1_63 <= 1
Sum_of_Bids_into_Query64: Route_B0_64 + Route_B1_64 <= 1
Sum_of_Bids_into_Query65: Route_B0_65 + Route_B1_65 <= 1
Sum_of_Bids_into_Query66: Route_B0_66 + Route_B1_66 <= 1
Sum_of_Bids_into_Query67: Route_B0_67 + Route_B1_67 <= 1
Sum_of_Bids_into_Query68: Route_B0_68 + Route_B1_68 <= 1
Sum_of_Bids_into_Query69: Route_B0_69 + Route_B1_69 <= 1
Sum_of_Bids_into_Query7: Route_B0_7 + Route_B1_7 <= 1
Sum_of_Bids_into_Query70: Route_B0_70 + Route_B1_70 <= 1
Sum_of_Bids_into_Query71: Route_B0_71 + Route_B1_71 <= 1
Sum_of_Bids_into_Query72: Route_B0_72 + Route_B1_72 <= 1
Sum_of_Bids_into_Query73: Route_B0_73 + Route_B1_73 <= 1
Sum_of_Bids_into_Query74: Route_B0_74 + Route_B1_74 <= 1
Sum_of_Bids_into_Query75: Route_B0_75 + Route_B1_75 <= 1
Sum_of_Bids_into_Query76: Route_B0_76 + Route_B1_76 <= 1
Sum_of_Bids_into_Query77: Route_B0_77 + Route_B1_77 <= 1
Sum_of_Bids_into_Query78: Route_B0_78 + Route_B1_78 <= 1
Sum_of_Bids_into_Query79: Route_B0_79 + Route_B1_79 <= 1
Sum_of_Bids_into_Query8: Route_B0_8 + Route_B1_8 <= 1
Sum_of_Bids_into_Query80: Route_B0_80 + Route_B1_80 <= 1
Sum_of_Bids_into_Query81: Route_B0_81 + Route_B1_81 <= 1
Sum_of_Bids_into_Query82: Route_B0_82 + Route_B1_82 <= 1
Sum_of_Bids_into_Query83: Route_B0_83 + Route_B1_83 <= 1
Sum_of_Bids_into_Query84: Route_B0_84 + Route_B1_84 <= 1
Sum_of_Bids_into_Query85: Route_B0_85 + Route_B1_85 <= 1
Sum_of_Bids_into_Query86: Route_B0_86 + Route_B1_86 <= 1
Sum_of_Bids_into_Query87: Route_B0_87 + Route_B1_87 <= 1
Sum_of_Bids_into_Query88: Route_B0_88 + Route_B1_88 <= 1
Sum_of_Bids_into_Query89: Route_B0_89 + Route_B1_89 <= 1
Sum_of_Bids_into_Query9: Route_B0_9 + Route_B1_9 <= 1
Sum_of_Bids_into_Query90: Route_B0_90 + Route_B1_90 <= 1
Sum_of_Bids_into_Query91: Route_B0_91 + Route_B1_91 <= 1
Sum_of_Bids_into_Query92: Route_B0_92 + Route_B1_92 <= 1
Sum_of_Bids_into_Query93: Route_B0_93 + Route_B1_93 <= 1
Sum_of_Bids_into_Query94: Route_B0_94 + Route_B1_94 <= 1
Sum_of_Bids_into_Query95: Route_B0_95 + Route_B1_95 <= 1
Sum_of_Bids_into_Query96: Route_B0_96 + Route_B1_96 <= 1
Sum_of_Bids_into_Query97: Route_B0_97 + Route_B1_97 <= 1
Sum_of_Bids_into_Query98: Route_B0_98 + Route_B1_98 <= 1
Sum_of_Bids_into_Query99: Route_B0_99 + Route_B1_99 <= 1
Sum_of_Products_out_of_Budget_B0: Route_B0_0 + Route_B0_1 <= 100
Sum_of_Products_out_of_Budget_B1: 0.5 Route_B1_0 <= 50
End
